p edge 103 1709
e 1 4
e 1 9
e 1 10
e 1 12
e 1 13
e 1 14
e 1 19
e 1 22
e 1 24
e 1 26
e 1 27
e 1 28
e 1 31
e 1 32
e 1 33
e 1 35
e 1 37
e 1 40
e 1 41
e 1 43
e 1 45
e 1 51
e 1 52
e 1 63
e 1 68
e 1 70
e 1 72
e 1 73
e 1 77
e 1 80
e 1 81
e 1 85
e 1 87
e 1 89
e 1 90
e 1 92
e 1 95
e 1 96
e 1 101
e 2 3
e 2 5
e 2 8
e 2 10
e 2 15
e 2 16
e 2 18
e 2 20
e 2 21
e 2 26
e 2 29
e 2 30
e 2 32
e 2 36
e 2 37
e 2 38
e 2 41
e 2 44
e 2 46
e 2 47
e 2 48
e 2 49
e 2 55
e 2 56
e 2 58
e 2 62
e 2 63
e 2 68
e 2 69
e 2 70
e 2 71
e 2 73
e 2 76
e 2 77
e 2 79
e 2 95
e 2 101
e 2 102
e 3 4
e 3 5
e 3 7
e 3 8
e 3 10
e 3 17
e 3 21
e 3 23
e 3 25
e 3 26
e 3 27
e 3 28
e 3 29
e 3 30
e 3 35
e 3 38
e 3 40
e 3 42
e 3 44
e 3 46
e 3 48
e 3 53
e 3 57
e 3 59
e 3 60
e 3 62
e 3 64
e 3 66
e 3 67
e 3 68
e 3 70
e 3 74
e 3 79
e 3 80
e 3 81
e 3 85
e 3 86
e 3 87
e 3 90
e 3 94
e 3 95
e 3 96
e 3 98
e 3 101
e 3 102
e 4 5
e 4 7
e 4 9
e 4 10
e 4 13
e 4 18
e 4 23
e 4 26
e 4 34
e 4 35
e 4 39
e 4 41
e 4 46
e 4 48
e 4 53
e 4 54
e 4 56
e 4 59
e 4 61
e 4 63
e 4 71
e 4 74
e 4 78
e 4 80
e 4 81
e 4 83
e 4 84
e 4 85
e 4 90
e 4 91
e 4 94
e 4 99
e 4 100
e 4 102
e 4 103
e 5 6
e 5 10
e 5 13
e 5 15
e 5 16
e 5 17
e 5 18
e 5 20
e 5 21
e 5 26
e 5 29
e 5 31
e 5 35
e 5 41
e 5 43
e 5 48
e 5 51
e 5 53
e 5 56
e 5 58
e 5 60
e 5 61
e 5 62
e 5 65
e 5 67
e 5 70
e 5 72
e 5 74
e 5 76
e 5 78
e 5 80
e 5 84
e 5 87
e 5 88
e 5 91
e 5 92
e 5 95
e 5 101
e 6 11
e 6 12
e 6 13
e 6 16
e 6 20
e 6 26
e 6 29
e 6 30
e 6 31
e 6 36
e 6 38
e 6 41
e 6 43
e 6 45
e 6 46
e 6 48
e 6 49
e 6 51
e 6 54
e 6 57
e 6 59
e 6 60
e 6 64
e 6 66
e 6 70
e 6 71
e 6 75
e 6 79
e 6 84
e 6 92
e 6 95
e 6 97
e 6 100
e 7 8
e 7 13
e 7 14
e 7 15
e 7 16
e 7 21
e 7 28
e 7 29
e 7 30
e 7 40
e 7 44
e 7 46
e 7 52
e 7 56
e 7 69
e 7 70
e 7 71
e 7 74
e 7 75
e 7 82
e 7 83
e 7 84
e 7 88
e 7 92
e 7 94
e 7 95
e 7 97
e 7 100
e 7 101
e 8 9
e 8 13
e 8 19
e 8 21
e 8 22
e 8 36
e 8 38
e 8 45
e 8 47
e 8 49
e 8 55
e 8 56
e 8 57
e 8 59
e 8 60
e 8 66
e 8 69
e 8 73
e 8 76
e 8 78
e 8 79
e 8 80
e 8 81
e 8 84
e 8 85
e 8 86
e 8 88
e 8 89
e 8 90
e 8 91
e 8 95
e 8 98
e 9 11
e 9 12
e 9 16
e 9 18
e 9 21
e 9 24
e 9 30
e 9 31
e 9 35
e 9 36
e 9 41
e 9 48
e 9 49
e 9 51
e 9 52
e 9 53
e 9 56
e 9 57
e 9 59
e 9 64
e 9 73
e 9 77
e 9 78
e 9 80
e 9 85
e 9 87
e 9 91
e 9 93
e 9 94
e 9 100
e 10 11
e 10 12
e 10 15
e 10 19
e 10 26
e 10 27
e 10 29
e 10 31
e 10 34
e 10 36
e 10 37
e 10 38
e 10 44
e 10 46
e 10 49
e 10 59
e 10 62
e 10 63
e 10 67
e 10 69
e 10 70
e 10 76
e 10 78
e 10 79
e 10 80
e 10 81
e 10 83
e 10 84
e 10 86
e 10 88
e 10 89
e 10 91
e 10 92
e 10 100
e 10 102
e 10 103
e 11 12
e 11 14
e 11 17
e 11 20
e 11 22
e 11 25
e 11 27
e 11 41
e 11 44
e 11 51
e 11 60
e 11 63
e 11 66
e 11 80
e 11 83
e 11 85
e 11 87
e 11 90
e 11 96
e 11 98
e 12 14
e 12 15
e 12 16
e 12 20
e 12 24
e 12 33
e 12 34
e 12 45
e 12 46
e 12 47
e 12 49
e 12 56
e 12 57
e 12 66
e 12 73
e 12 74
e 12 75
e 12 77
e 12 80
e 12 82
e 12 83
e 12 84
e 12 86
e 12 90
e 12 92
e 12 97
e 12 102
e 13 19
e 13 20
e 13 21
e 13 27
e 13 28
e 13 31
e 13 38
e 13 44
e 13 47
e 13 49
e 13 52
e 13 53
e 13 57
e 13 58
e 13 59
e 13 61
e 13 62
e 13 67
e 13 69
e 13 73
e 13 77
e 13 78
e 13 82
e 13 88
e 13 98
e 13 100
e 14 16
e 14 17
e 14 20
e 14 22
e 14 24
e 14 25
e 14 26
e 14 28
e 14 31
e 14 33
e 14 37
e 14 38
e 14 40
e 14 42
e 14 48
e 14 49
e 14 50
e 14 56
e 14 57
e 14 67
e 14 68
e 14 75
e 14 76
e 14 77
e 14 79
e 14 81
e 14 82
e 14 83
e 14 85
e 14 89
e 14 97
e 14 103
e 15 17
e 15 19
e 15 24
e 15 33
e 15 36
e 15 44
e 15 45
e 15 49
e 15 50
e 15 52
e 15 58
e 15 60
e 15 61
e 15 64
e 15 66
e 15 69
e 15 72
e 15 83
e 15 84
e 15 86
e 15 89
e 15 90
e 15 91
e 15 92
e 15 94
e 15 100
e 16 19
e 16 21
e 16 23
e 16 25
e 16 27
e 16 38
e 16 39
e 16 40
e 16 42
e 16 43
e 16 45
e 16 46
e 16 47
e 16 48
e 16 49
e 16 50
e 16 52
e 16 54
e 16 57
e 16 58
e 16 61
e 16 67
e 16 73
e 16 74
e 16 76
e 16 81
e 16 84
e 16 85
e 16 86
e 16 89
e 16 90
e 16 92
e 16 94
e 16 96
e 16 100
e 16 101
e 16 102
e 17 27
e 17 30
e 17 34
e 17 35
e 17 36
e 17 39
e 17 40
e 17 46
e 17 49
e 17 54
e 17 58
e 17 63
e 17 64
e 17 66
e 17 68
e 17 69
e 17 71
e 17 73
e 17 74
e 17 82
e 17 85
e 17 89
e 17 90
e 17 92
e 17 93
e 17 94
e 17 101
e 18 20
e 18 22
e 18 23
e 18 24
e 18 25
e 18 26
e 18 30
e 18 31
e 18 33
e 18 34
e 18 36
e 18 37
e 18 40
e 18 42
e 18 47
e 18 48
e 18 50
e 18 51
e 18 53
e 18 55
e 18 58
e 18 59
e 18 65
e 18 66
e 18 67
e 18 68
e 18 69
e 18 70
e 18 71
e 18 73
e 18 77
e 18 83
e 18 86
e 18 87
e 18 89
e 18 92
e 18 93
e 18 94
e 18 95
e 18 96
e 18 97
e 18 102
e 18 103
e 19 20
e 19 22
e 19 23
e 19 29
e 19 30
e 19 31
e 19 40
e 19 45
e 19 48
e 19 51
e 19 52
e 19 55
e 19 61
e 19 69
e 19 72
e 19 74
e 19 77
e 19 85
e 19 89
e 19 90
e 19 93
e 19 96
e 19 99
e 19 101
e 19 103
e 20 22
e 20 26
e 20 29
e 20 30
e 20 31
e 20 32
e 20 34
e 20 38
e 20 39
e 20 41
e 20 42
e 20 44
e 20 45
e 20 48
e 20 57
e 20 58
e 20 65
e 20 70
e 20 73
e 20 75
e 20 78
e 20 81
e 20 82
e 20 84
e 20 85
e 20 89
e 20 91
e 20 93
e 20 94
e 20 103
e 21 22
e 21 23
e 21 26
e 21 29
e 21 32
e 21 34
e 21 43
e 21 44
e 21 50
e 21 56
e 21 57
e 21 65
e 21 69
e 21 72
e 21 75
e 21 78
e 21 84
e 21 86
e 21 91
e 21 98
e 21 101
e 21 103
e 22 24
e 22 33
e 22 34
e 22 42
e 22 46
e 22 47
e 22 48
e 22 49
e 22 52
e 22 53
e 22 55
e 22 57
e 22 61
e 22 62
e 22 65
e 22 67
e 22 70
e 22 76
e 22 78
e 22 79
e 22 91
e 22 93
e 22 94
e 22 95
e 22 97
e 23 24
e 23 25
e 23 26
e 23 27
e 23 29
e 23 34
e 23 42
e 23 44
e 23 50
e 23 55
e 23 56
e 23 58
e 23 60
e 23 61
e 23 62
e 23 63
e 23 65
e 23 68
e 23 70
e 23 71
e 23 76
e 23 77
e 23 82
e 23 83
e 23 84
e 23 85
e 23 89
e 23 91
e 23 95
e 23 97
e 23 99
e 23 100
e 23 101
e 24 25
e 24 39
e 24 46
e 24 51
e 24 53
e 24 54
e 24 55
e 24 61
e 24 63
e 24 66
e 24 67
e 24 72
e 24 76
e 24 78
e 24 80
e 24 84
e 24 89
e 24 90
e 24 91
e 24 95
e 24 97
e 24 102
e 24 103
e 25 27
e 25 38
e 25 40
e 25 46
e 25 49
e 25 55
e 25 57
e 25 63
e 25 65
e 25 68
e 25 70
e 25 71
e 25 74
e 25 75
e 25 79
e 25 81
e 25 84
e 25 86
e 25 95
e 25 96
e 25 97
e 26 28
e 26 30
e 26 31
e 26 32
e 26 34
e 26 42
e 26 43
e 26 44
e 26 50
e 26 51
e 26 52
e 26 54
e 26 55
e 26 61
e 26 75
e 26 76
e 26 79
e 26 87
e 26 88
e 26 89
e 26 93
e 26 94
e 26 96
e 26 98
e 27 29
e 27 32
e 27 33
e 27 37
e 27 40
e 27 41
e 27 42
e 27 43
e 27 45
e 27 49
e 27 53
e 27 55
e 27 58
e 27 62
e 27 75
e 27 76
e 27 81
e 27 82
e 27 87
e 27 89
e 27 91
e 27 95
e 27 96
e 27 98
e 27 101
e 28 29
e 28 31
e 28 32
e 28 45
e 28 47
e 28 49
e 28 53
e 28 55
e 28 59
e 28 62
e 28 63
e 28 70
e 28 71
e 28 75
e 28 77
e 28 79
e 28 82
e 28 88
e 28 96
e 28 101
e 28 103
e 29 30
e 29 35
e 29 37
e 29 49
e 29 50
e 29 51
e 29 53
e 29 54
e 29 55
e 29 67
e 29 70
e 29 71
e 29 72
e 29 76
e 29 77
e 29 79
e 29 82
e 29 83
e 29 87
e 29 88
e 29 92
e 29 97
e 30 35
e 30 37
e 30 40
e 30 41
e 30 42
e 30 43
e 30 44
e 30 47
e 30 51
e 30 53
e 30 64
e 30 67
e 30 75
e 30 86
e 30 88
e 30 91
e 30 94
e 30 95
e 30 96
e 31 34
e 31 39
e 31 43
e 31 46
e 31 51
e 31 53
e 31 54
e 31 57
e 31 63
e 31 68
e 31 70
e 31 71
e 31 74
e 31 85
e 31 86
e 31 88
e 31 92
e 31 94
e 31 97
e 31 98
e 31 100
e 31 101
e 31 103
e 32 33
e 32 42
e 32 45
e 32 47
e 32 49
e 32 52
e 32 53
e 32 56
e 32 60
e 32 74
e 32 80
e 32 81
e 32 84
e 32 85
e 32 89
e 32 90
e 32 92
e 32 98
e 32 100
e 32 101
e 33 38
e 33 43
e 33 48
e 33 50
e 33 54
e 33 58
e 33 61
e 33 63
e 33 65
e 33 68
e 33 73
e 33 75
e 33 77
e 33 80
e 33 81
e 33 84
e 33 89
e 33 90
e 33 96
e 33 99
e 33 101
e 33 102
e 34 39
e 34 42
e 34 47
e 34 48
e 34 49
e 34 50
e 34 52
e 34 56
e 34 59
e 34 69
e 34 73
e 34 75
e 34 77
e 34 81
e 34 85
e 34 87
e 34 88
e 34 89
e 34 96
e 34 98
e 34 102
e 35 42
e 35 44
e 35 47
e 35 49
e 35 50
e 35 54
e 35 62
e 35 63
e 35 67
e 35 71
e 35 73
e 35 74
e 35 75
e 35 76
e 35 78
e 35 81
e 35 86
e 35 87
e 35 88
e 35 95
e 35 98
e 35 102
e 36 42
e 36 60
e 36 65
e 36 69
e 36 70
e 36 71
e 36 72
e 36 73
e 36 74
e 36 76
e 36 81
e 36 82
e 36 86
e 36 88
e 36 90
e 36 91
e 36 92
e 36 93
e 36 97
e 36 100
e 36 102
e 37 39
e 37 40
e 37 43
e 37 47
e 37 50
e 37 51
e 37 62
e 37 66
e 37 69
e 37 70
e 37 76
e 37 78
e 37 79
e 37 80
e 37 82
e 37 83
e 37 84
e 37 88
e 37 89
e 37 92
e 37 95
e 37 98
e 37 99
e 38 40
e 38 41
e 38 44
e 38 45
e 38 50
e 38 57
e 38 61
e 38 63
e 38 69
e 38 71
e 38 75
e 38 76
e 38 77
e 38 79
e 38 83
e 38 84
e 38 87
e 38 88
e 38 95
e 38 99
e 38 100
e 38 101
e 38 103
e 39 41
e 39 42
e 39 52
e 39 55
e 39 63
e 39 82
e 39 83
e 39 87
e 39 89
e 39 91
e 39 94
e 39 98
e 39 103
e 40 44
e 40 47
e 40 48
e 40 49
e 40 50
e 40 52
e 40 55
e 40 58
e 40 64
e 40 65
e 40 74
e 40 78
e 40 79
e 40 83
e 40 87
e 40 89
e 40 90
e 40 91
e 40 94
e 40 95
e 40 97
e 40 100
e 40 102
e 41 42
e 41 45
e 41 49
e 41 50
e 41 51
e 41 53
e 41 55
e 41 56
e 41 65
e 41 69
e 41 71
e 41 73
e 41 74
e 41 79
e 41 80
e 41 81
e 41 82
e 41 89
e 41 90
e 41 91
e 41 92
e 41 93
e 41 95
e 41 100
e 41 101
e 41 103
e 42 45
e 42 48
e 42 50
e 42 51
e 42 53
e 42 56
e 42 58
e 42 61
e 42 66
e 42 72
e 42 73
e 42 75
e 42 79
e 42 85
e 42 86
e 42 90
e 42 100
e 42 101
e 42 102
e 42 103
e 43 48
e 43 49
e 43 54
e 43 62
e 43 64
e 43 65
e 43 66
e 43 72
e 43 73
e 43 74
e 43 76
e 43 77
e 43 80
e 43 84
e 43 87
e 43 88
e 43 95
e 43 100
e 43 101
e 44 45
e 44 46
e 44 47
e 44 48
e 44 49
e 44 53
e 44 57
e 44 60
e 44 69
e 44 70
e 44 72
e 44 76
e 44 77
e 44 78
e 44 82
e 44 91
e 44 99
e 44 100
e 44 102
e 45 51
e 45 63
e 45 64
e 45 68
e 45 70
e 45 73
e 45 74
e 45 77
e 45 84
e 45 87
e 45 88
e 45 91
e 45 93
e 45 97
e 45 100
e 45 101
e 46 50
e 46 52
e 46 54
e 46 55
e 46 56
e 46 61
e 46 62
e 46 64
e 46 69
e 46 71
e 46 72
e 46 78
e 46 84
e 46 87
e 46 89
e 46 91
e 46 96
e 46 98
e 46 102
e 46 103
e 47 48
e 47 54
e 47 57
e 47 72
e 47 79
e 47 80
e 47 82
e 47 83
e 47 84
e 47 85
e 47 86
e 47 88
e 47 93
e 47 99
e 47 100
e 47 102
e 48 49
e 48 53
e 48 61
e 48 63
e 48 65
e 48 66
e 48 68
e 48 72
e 48 74
e 48 75
e 48 76
e 48 77
e 48 82
e 48 83
e 48 84
e 48 86
e 48 90
e 48 91
e 48 92
e 48 94
e 48 95
e 48 101
e 48 102
e 48 103
e 49 51
e 49 57
e 49 63
e 49 64
e 49 78
e 49 81
e 49 85
e 49 93
e 49 96
e 49 97
e 50 56
e 50 58
e 50 59
e 50 65
e 50 67
e 50 68
e 50 69
e 50 70
e 50 72
e 50 74
e 50 77
e 50 78
e 50 79
e 50 88
e 50 89
e 50 90
e 50 93
e 50 94
e 50 97
e 50 99
e 50 101
e 50 102
e 51 54
e 51 57
e 51 59
e 51 61
e 51 64
e 51 67
e 51 68
e 51 71
e 51 75
e 51 86
e 51 89
e 51 92
e 51 96
e 51 97
e 51 98
e 51 99
e 51 100
e 52 56
e 52 57
e 52 58
e 52 59
e 52 63
e 52 68
e 52 72
e 52 76
e 52 77
e 52 78
e 52 90
e 52 101
e 53 58
e 53 63
e 53 64
e 53 67
e 53 68
e 53 69
e 53 70
e 53 71
e 53 76
e 53 86
e 53 88
e 53 92
e 53 93
e 53 99
e 54 61
e 54 62
e 54 63
e 54 65
e 54 68
e 54 70
e 54 71
e 54 83
e 54 86
e 54 88
e 54 90
e 54 91
e 54 92
e 54 98
e 54 100
e 55 57
e 55 68
e 55 69
e 55 80
e 55 81
e 55 86
e 55 97
e 56 57
e 56 60
e 56 64
e 56 69
e 56 75
e 56 77
e 56 79
e 56 84
e 56 86
e 56 87
e 56 96
e 56 97
e 56 100
e 57 58
e 57 61
e 57 68
e 57 69
e 57 70
e 57 73
e 57 74
e 57 77
e 57 79
e 57 80
e 57 82
e 57 95
e 57 100
e 58 59
e 58 62
e 58 63
e 58 64
e 58 69
e 58 72
e 58 75
e 58 76
e 58 78
e 58 79
e 58 88
e 58 89
e 58 90
e 58 93
e 58 95
e 58 96
e 58 97
e 58 99
e 58 101
e 59 66
e 59 70
e 59 78
e 59 81
e 59 86
e 59 88
e 59 92
e 59 99
e 59 100
e 59 101
e 60 62
e 60 65
e 60 67
e 60 69
e 60 74
e 60 76
e 60 78
e 60 88
e 60 90
e 60 91
e 60 97
e 60 98
e 60 101
e 61 72
e 61 74
e 61 76
e 61 77
e 61 81
e 61 82
e 61 89
e 61 90
e 61 92
e 61 95
e 61 96
e 61 100
e 62 66
e 62 68
e 62 72
e 62 79
e 62 82
e 62 85
e 62 88
e 62 89
e 62 90
e 62 91
e 62 92
e 62 96
e 62 101
e 63 69
e 63 72
e 63 73
e 63 75
e 63 82
e 63 86
e 63 87
e 63 91
e 63 92
e 63 93
e 63 95
e 63 96
e 63 99
e 63 100
e 63 101
e 64 65
e 64 69
e 64 70
e 64 71
e 64 74
e 64 76
e 64 79
e 64 82
e 64 84
e 64 86
e 64 89
e 64 91
e 64 92
e 64 93
e 64 94
e 64 96
e 64 98
e 64 99
e 64 101
e 64 102
e 64 103
e 65 68
e 65 71
e 65 72
e 65 73
e 65 78
e 65 87
e 65 94
e 65 96
e 65 97
e 65 102
e 66 67
e 66 69
e 66 71
e 66 74
e 66 76
e 66 78
e 66 82
e 66 83
e 66 84
e 66 85
e 66 92
e 66 95
e 66 99
e 66 102
e 66 103
e 67 68
e 67 70
e 67 74
e 67 78
e 67 84
e 67 91
e 67 99
e 67 100
e 67 101
e 67 103
e 68 69
e 68 70
e 68 72
e 68 75
e 68 77
e 68 78
e 68 79
e 68 80
e 68 83
e 68 87
e 68 89
e 68 93
e 68 94
e 68 95
e 68 97
e 68 101
e 69 74
e 69 83
e 69 84
e 69 85
e 69 88
e 69 95
e 69 97
e 69 98
e 69 101
e 69 103
e 70 76
e 70 86
e 70 87
e 70 89
e 70 92
e 70 93
e 70 94
e 70 102
e 71 72
e 71 79
e 71 88
e 71 90
e 71 93
e 72 76
e 72 82
e 72 90
e 72 91
e 72 94
e 72 99
e 73 74
e 73 75
e 73 76
e 73 84
e 73 87
e 73 88
e 73 95
e 73 99
e 73 100
e 74 79
e 74 89
e 74 93
e 74 99
e 74 102
e 75 86
e 75 98
e 76 79
e 76 80
e 76 82
e 76 85
e 76 87
e 76 95
e 76 97
e 76 98
e 76 99
e 76 101
e 76 103
e 77 78
e 77 82
e 77 87
e 77 88
e 77 89
e 77 97
e 77 99
e 77 100
e 77 102
e 77 103
e 78 80
e 78 83
e 78 87
e 78 88
e 78 89
e 78 93
e 78 95
e 78 102
e 79 83
e 79 84
e 79 87
e 79 90
e 79 91
e 79 99
e 79 100
e 79 102
e 80 83
e 80 85
e 80 88
e 80 91
e 80 93
e 80 96
e 80 98
e 81 82
e 81 83
e 81 84
e 81 85
e 81 86
e 81 87
e 81 89
e 81 91
e 81 95
e 81 102
e 81 103
e 82 83
e 82 84
e 82 85
e 82 86
e 82 87
e 82 89
e 82 90
e 82 93
e 82 101
e 83 85
e 83 89
e 83 90
e 83 91
e 83 92
e 83 94
e 83 98
e 83 99
e 84 87
e 84 90
e 84 92
e 84 96
e 84 102
e 84 103
e 85 87
e 85 88
e 85 90
e 85 93
e 85 96
e 85 97
e 85 100
e 85 101
e 85 102
e 85 103
e 86 90
e 86 94
e 86 102
e 87 89
e 87 90
e 87 102
e 88 90
e 88 93
e 88 95
e 88 96
e 88 101
e 88 103
e 89 102
e 90 95
e 90 96
e 90 98
e 90 101
e 91 92
e 91 95
e 91 101
e 92 96
e 92 99
e 92 103
e 93 94
e 93 98
e 93 99
e 93 100
e 93 101
e 94 96
e 94 99
e 95 96
e 95 98
e 95 100
e 95 101
e 96 98
e 96 99
e 96 100
e 96 102
e 97 102
e 98 102
e 99 100
e 99 101
e 99 103
e 100 102
e 102 103
